p cnf 15 20
15 -13 11 0
-15 12 8 0
15 -8 -5 0
-15 8 2 0
-15 -7 2 0
15 5 -3 0
14 13 -5 0
-14 13 -2 0
-13 -12 4 0
-13 8 4 0
-12 -9 8 0
12 8 7 0
-12 4 2 0
-11 9 5 0
-11 -7 2 0
-8 -7 -6 0
8 4 1 0
7 -4 3 0
7 4 2 0
-5 3 1 0
